letting input=[4,1,4,1,17,17,8,29,22,5,14,30,22,19,16]
letting output=[31,7,64,64,69,34,10,46,9,26,20,35,31,29,51,49,53,33,57,58,46,61,51,26,14,40,18,13,13,49,30,39,25,32,54]
letting MAX_OPS=615
letting num_registers=1
